nNurses = 138;
nHours = 32;
minHours = 5;
maxHours = 20;
maxConsec = 8;
maxPresence = 15;
demand = [12, 15, 17, 15, 19, 18, 16, 11, 16, 17, 14, 18, 17, 20, 25, 28, 27, 27, 29, 27, 30, 31, 30, 32, 30, 33, 35, 40, 45, 45, 40, 37];
